;; sat

(declare-const x1 sl.list.loc)
(declare-const x2 sl.list.loc)
(declare-const x3 sl.list.loc)
(declare-const x4 sl.list.loc)
(declare-const x5 sl.list.loc)
(declare-const x6 sl.list.loc)
(declare-const x7 sl.list.loc)
(declare-const x8 sl.list.loc)
(declare-const x9 sl.list.loc)
(declare-const x10 sl.list.loc)

(assert (and (sl.sepcon (sl.list.eq sl.list.null sl.list.null)
 (sl.sepcon (sl.sepcon (sl.sepcon (sl.sepcon (sl.sepcon (sl.sepcon (sl.sepcon (sl.sepcon (sl.sepcon (sl.list.next x2 x9)
 (sl.list.seg x3 x6)
)
 (sl.list.next x5 x4)
)
 (sl.list.next x8 x9)
)
 (sl.list.next x4 x2)
)
 (sl.list.next x7 x6)
)
 (sl.list.next x10 x5)
)
 (sl.list.next x1 x2)
)
 (sl.list.next x6 x3)
)
 (sl.list.seg x9 x5)
)
)
 (not (sl.sepcon (sl.sepcon (sl.sepcon (sl.sepcon (sl.sepcon (sl.sepcon (sl.sepcon (sl.list.seg x7 x6)
 (sl.list.seg x8 x9)
)
 (sl.list.seg x10 x5)
)
 (sl.list.seg x5 x4)
)
 (sl.list.seg x6 x3)
)
 (sl.list.seg x3 x6)
)
 (sl.list.seg x1 x2)
)
 (sl.list.seg x4 x5)
)
))
)

